p edge 30
e 1 2 Phone
e 1 3 Email
e 1 4 Email
e 1 5 Phone
e 2 3 Email
e 2 4 Phone
e 2 5 Email
e 3 4 Phone
e 3 5 Email
e 4 5 Phone
e 3 4 Email
e 4 6 Email
e 3 6 Phone
e 4 3 Phone
e 1 28 Phone
e 2 28 Email
e 5 28 Email
e 1 4 Phone
e 21 3 Email
e 3 21 Phone
e 1 7 Phone
e 1 8 Email
e 1 9 Email
e 1 10 Email
e 1 11 Phone
e 1 12 Phone
e 1 13 Phone
e 1 14 Phone
e 1 15 Email
e 1 16 Email
e 1 17 Phone
e 1 18 Email
e 1 19 Phone
e 1 20 Email
e 1 22 Email
e 1 23 Phone
e 1 24 Email
e 1 25 Phone
e 1 26 Phone
e 1 27 Phone
e 1 29 Email
e 1 30 Email
